
******************************************************************************
This program contains Ipopt, a library for large-scale nonlinear optimization.
 Ipopt is released as open source code under the Eclipse Public License (EPL).
         For more information visit http://projects.coin-or.org/Ipopt
******************************************************************************

This is Ipopt version 3.12.6, running with linear solver ma57.

Number of nonzeros in equality constraint Jacobian...:    24220
Number of nonzeros in inequality constraint Jacobian.:        0
Number of nonzeros in Lagrangian Hessian.............:     4900

Total number of variables............................:     4900
                     variables with only lower bounds:        0
                variables with lower and upper bounds:        0
                     variables with only upper bounds:        0
Total number of equality constraints.................:     4900
Total number of inequality constraints...............:        0
        inequality constraints with only lower bounds:        0
   inequality constraints with lower and upper bounds:        0
        inequality constraints with only upper bounds:        0

iter    objective    inf_pr   inf_du lg(mu)  ||d||  lg(rg) alpha_du alpha_pr  ls
   0  0.0000000e+00 7.93e-04 0.00e+00  -1.0 0.00e+00    -  0.00e+00 0.00e+00   0
Reallocating memory for MA57: lfact (1487874)
Reallocating memory for MA57: lfact (1723650)
   1  0.0000000e+00 6.40e-05 2.21e-15  -5.7 3.76e-01    -  1.00e+00 1.00e+00h  1
   2  0.0000000e+00 2.09e-07 1.24e-18  -5.7 1.89e-02    -  1.00e+00 1.00e+00h  1
   3  0.0000000e+00 1.52e-12 1.82e-23  -8.6 5.07e-05    -  1.00e+00 1.00e+00h  1

Number of Iterations....: 3

                                   (scaled)                 (unscaled)
Objective...............:   0.0000000000000000e+00    0.0000000000000000e+00
Dual infeasibility......:   0.0000000000000000e+00    0.0000000000000000e+00
Constraint violation....:   1.5170748771803355e-12    1.5170748771803355e-12
Complementarity.........:   0.0000000000000000e+00    0.0000000000000000e+00
Overall NLP error.......:   1.5170748771803355e-12    1.5170748771803355e-12


Number of objective function evaluations             = 4
Number of objective gradient evaluations             = 4
Number of equality constraint evaluations            = 4
Number of inequality constraint evaluations          = 0
Number of equality constraint Jacobian evaluations   = 4
Number of inequality constraint Jacobian evaluations = 0
Number of Lagrangian Hessian evaluations             = 3
Total CPU secs in IPOPT (w/o function evaluations)   =      0.660
Total CPU secs in NLP function evaluations           =      0.010

EXIT: Optimal Solution Found.

************************ CUTEst statistics ************************


 Package used            :  IPOPT
 Problem                 :  BRATU2D   
 # variables             =            5184
 # constraints           =            4900
 # objective functions   =        0.9000000E+01
 # objective gradients   =        0.5000000E+01
 # objective Hessians    =        0.4000000E+01
 # Hessian-vector prdct  =        0.0000000E+00
 # constraints functions =        0.1000000E+02
 # constraints gradients =        0.6000000E+01
 # constraints Hessians  =        0.4000000E+01
 Exit code               =               0
 Final f                 =   0.0000000E+00
 Set up time             =            0.11 seconds
 Solve time              =            1.76 seconds


******************************************************************

System Time =       0.4390000105 s.
